[[11, 66, 65, 38, 10, 31, 58, 72, 39, 9, 32, 25, 55, 18, 50, 24, 3, 44, 49, 16, 33, 63, 23], [56, 43, 41, 42, 64, 22, 73, 62, 28, 2, 74, 30, 48, 21, 61, 69, 47, 36, 71, 60, 70, 20, 37, 5, 29], [15, 57, 27, 13, 54, 19, 8, 46, 34, 52, 45, 4, 67, 76, 75, 68, 6, 51, 17, 40, 12, 26, 7, 35, 53, 14, 59]]